NAME : mar50_100_0
COMMENT : Data set with 50 points
COMMENT : CIn-UFPE
COMMENT : Contributed by Marcelo Lacerda
TYPE : TSP
DIMENSION : 50
EDGE_WEIGHT_TYPE : EUC_2D
NODE_COORD_SECTION
1 88 86
2 77 15
3 59 83
4 52 69
5 70 93
6 61 23
7 77 16
8 57 36
9 60 66
10 74 61
11 18 64
12 79 41
13 31 60
14 46 37
15 25 79
16 12 71
17 4 84
18 68 47
19 57 89
20 71 43
21 68 7
22 96 83
23 29 22
24 26 30
25 40 18
26 58 7
27 87 42
28 92 34
29 16 63
30 39 57
31 49 72
32 1 35
33 18 54
34 83 12
35 4 85
36 89 85
37 25 22
38 11 32
39 47 33
40 72 73
41 63 65
42 10 40
43 86 22
44 52 44
45 33 9
46 42 55
47 29 6
48 85 60
49 7 83
50 43 2
EOF
